CapLotSizing_PM/src/Instancias/NCLSLT/12i6p2m/NBB03.OUT
 CG ITER, OVMR, OVMRUB =           1   17719.0781250   17204.3007812
 CG ITER, OVMR, OVMRUB =           2   17204.3027344   17204.3007812
 CG ITER, OVMR, OVMRUB =           3   17204.3007812   17204.3007812
 CG ITER, OVMR, OVMRUB =           4   17190.2636719   17204.3007812
 CG ITER, OVMR, OVMRUB =           5   16782.4687500   17204.3007812
 CG ITER, OVMR, OVMRUB =           6   16636.3867188   17204.3007812
 CG ITER, OVMR, OVMRUB =           7   16580.7441406   17204.3007812
 CG ITER, OVMR, OVMRUB =           8   16536.9511719   17204.3007812
 CG ITER, OVMR, OVMRUB =           9   16492.1757812   17204.3007812
 CG ITER, OVMR, OVMRUB =          10   16457.7675781   17204.3007812
 CG ITER, OVMR, OVMRUB =          11   16428.1523438   17204.3007812
 CG ITER, OVMR, OVMRUB =          12   16398.6718750   17204.3007812
 CG ITER, OVMR, OVMRUB =          13   16375.0380859   17204.3007812
 CG ITER, OVMR, OVMRUB =          14   16359.3613281   17204.3007812
 CG ITER, OVMR, OVMRUB =          15   16339.2998047   17204.3007812
 CG ITER, OVMR, OVMRUB =          16   16322.9648438   17204.3007812
 CG ITER, OVMR, OVMRUB =          17   16310.5136719   17204.3007812
 CG ITER, OVMR, OVMRUB =          18   16305.1884766   17076.5039062
 CG ITER, OVMR, OVMRUB =          19   16301.1806641   17076.5039062
 CG ITER, OVMR, OVMRUB =          20   16291.2373047   17076.5039062
 CG ITER, OVMR, OVMRUB =          21   16288.2714844   17076.5039062
 CG ITER, OVMR, OVMRUB =          22   16283.7285156   17076.5039062
 CG ITER, OVMR, OVMRUB =          23   16272.6005859   16747.9023438
 CG ITER, OVMR, OVMRUB =          24   16267.7802734   16747.9023438
 CG ITER, OVMR, OVMRUB =          25   16265.2177734   16747.9023438
 CG ITER, OVMR, OVMRUB =          26   16265.2148438   16575.1035156
 CG ITER, OVMR, OVMRUB =          27   16265.1875000   16575.1035156
 CG ITER, OVMR, OVMRUB =          28   16263.6728516   16575.1035156
 CG ITER, OVMR, OVMRUB =          29   16263.8183594   16575.1035156
 CG ITER, OVMR, OVMRUB =          30   16263.6865234   16505.1015625
 CG ITER, OVMR, OVMRUB =          31   16263.8437500   16315.7011719
 CG ITER, OVMR, OVMRUB =          32   16263.9072266   16315.7011719
 CG ITER, OVMR, OVMRUB =          33   16263.9111328   16315.7011719
 CG ITER, OVMR, OVMRUB =          34   16263.9101562   16315.7011719
 CG ITER, OVMR, OVMRUB =          35   16263.9101562   16315.7011719
OVLB =   16263.9101562 OVLUB =   16315.7011719 TIME =       4.6799998
